15
369 7
346 10
322 11
347 10
348 12
383 13
347 8
364 11
340 8
324 8
365 13
314 12
306 13
394 13
326 7
310 11
400 9
339 13
381 5
353 14
383 6
317 9
349 6
396 11
353 14
322 9
329 5
386 5
382 5
369 4
304 6
392 10
390 8
307 8
318 10
359 13
378 9
376 8
330 11
331 9